language Essence 1.3

letting class be function(1 --> 1, 2 --> 1, 3 --> 1, 4 --> 1, 5 --> 1, 6 --> 1, 7 --> 1, 8 --> 1)
letting deck_length be 94
letting deck_width be 2
letting length be function(1 --> 16, 2 --> 17, 3 --> 18, 4 --> 21, 5 --> 1, 6 --> 25, 7 --> 1, 8 --> 1)
letting n_classes be 1
letting n_containers be 8
letting separation be function()
letting width be function(1 --> 1, 2 --> 1, 3 --> 1, 4 --> 2, 5 --> 1, 6 --> 2, 7 --> 1, 8 --> 1)
